p cnf 126 397
c t mc
3 1 0
3 -2 0
-1 2 -3 0
-6 -4 0
-6 5 0
4 -5 6 0
-7 -3 0
-7 6 0
3 -6 7 0
9 10 -11 0
-9 -10 -11 0
9 -10 11 0
-9 10 11 0
13 -11 0
13 -12 0
11 12 -13 0
-15 13 0
-15 14 0
-13 -14 15 0
16 -8 0
16 -15 0
8 15 -16 0
-7 16 -17 0
7 -16 -17 0
-7 -16 17 0
7 16 17 0
20 18 0
20 -19 0
-18 19 -20 0
-22 -18 0
-22 21 0
18 -21 22 0
23 20 0
23 22 0
-20 -22 -23 0
25 24 0
25 -24 0
23 -25 -26 0
-23 25 -26 0
23 25 26 0
-23 -25 26 0
29 -28 0
29 -19 0
28 19 -29 0
-29 -30 -31 0
29 30 -31 0
-29 30 31 0
29 -30 31 0
-32 27 0
-32 -31 0
-27 31 32 0
-33 -26 0
-33 32 0
26 -32 33 0
34 -14 0
34 29 0
14 -29 -34 0
-8 35 -36 0
8 -35 -36 0
-8 -35 36 0
8 35 36 0
-38 36 0
-38 -37 0
-36 37 38 0
-39 34 0
-39 -38 0
-34 38 39 0
-40 -33 0
-40 39 0
33 -39 40 0
-36 -8 -41 0
36 8 -41 0
-36 8 41 0
36 -8 41 0
-42 5 0
-42 41 0
-5 -41 42 0
43 -37 0
43 -36 0
37 36 -43 0
1 -29 -44 0
-1 29 -44 0
1 29 44 0
-1 -29 44 0
45 -41 0
45 8 0
41 -8 -45 0
-47 -45 0
-47 46 0
45 -46 47 0
-48 -8 -49 0
48 8 -49 0
-48 8 49 0
48 -8 49 0
50 47 0
50 49 0
-47 -49 -50 0
4 51 -52 0
-4 -51 -52 0
4 -51 52 0
-4 51 52 0
53 -41 0
53 52 0
41 -52 -53 0
-50 -53 -54 0
50 53 -54 0
-50 53 54 0
50 -53 54 0
55 44 0
55 54 0
-44 -54 -55 0
21 4 -56 0
-21 -4 -56 0
21 -4 56 0
-21 4 56 0
57 31 0
57 -56 0
-31 56 -57 0
57 51 -58 0
-57 -51 -58 0
57 -51 58 0
-57 51 58 0
-59 -25 0
-59 58 0
25 -58 59 0
45 59 -60 0
-45 -59 -60 0
45 -59 60 0
-45 59 60 0
-61 -35 0
-61 30 0
35 -30 61 0
-61 15 -62 0
61 -15 -62 0
-61 -15 62 0
61 15 62 0
-60 62 -63 0
60 -62 -63 0
-60 -62 63 0
60 62 63 0
-35 -9 -64 0
35 9 -64 0
-35 9 64 0
35 -9 64 0
65 -31 0
65 -48 0
31 48 -65 0
-66 -64 0
-66 -65 0
64 65 66 0
-68 11 0
-68 -67 0
-11 67 68 0
-66 -68 -69 0
66 68 -69 0
-66 68 69 0
66 -68 69 0
-63 69 -70 0
63 -69 -70 0
-63 -69 70 0
63 69 70 0
55 -70 -71 0
-55 70 -71 0
55 70 71 0
-55 -70 71 0
-72 43 0
-72 -71 0
-43 71 72 0
-42 -72 -73 0
42 72 -73 0
-42 72 73 0
42 -72 73 0
74 4 0
74 4 0
-4 -74 0
74 -30 -75 0
-74 30 -75 0
74 30 75 0
-74 -30 75 0
13 -48 -76 0
-13 48 -76 0
13 48 76 0
-13 -48 76 0
-77 75 0
-77 -76 0
-75 76 77 0
-78 73 0
-78 -77 0
-73 77 78 0
79 27 0
79 -21 0
-27 21 -79 0
-80 13 0
-80 -79 0
-13 79 80 0
-81 61 0
-81 -19 0
-61 19 81 0
-80 81 -82 0
80 -81 -82 0
-80 -81 82 0
80 81 82 0
12 -4 -83 0
-12 4 -83 0
12 4 83 0
-12 -4 83 0
84 83 0
84 21 0
-83 -21 -84 0
-85 82 0
-85 -84 0
-82 84 85 0
-67 38 -86 0
67 -38 -86 0
-67 -38 86 0
67 38 86 0
-87 -57 0
-87 86 0
57 -86 87 0
-37 -34 -88 0
37 34 -88 0
-37 34 88 0
37 -34 88 0
89 -56 0
89 8 0
56 -8 -89 0
-88 -89 -90 0
88 89 -90 0
-88 89 90 0
88 -89 90 0
-91 -87 0
-91 90 0
87 -90 91 0
-92 -4 0
-92 14 0
4 -14 92 0
-91 92 -93 0
91 -92 -93 0
-91 -92 93 0
91 92 93 0
94 67 0
94 9 0
-67 -9 -94 0
-31 94 -95 0
31 -94 -95 0
-31 -94 95 0
31 94 95 0
96 93 0
96 -95 0
-93 95 -96 0
-1 -5 -97 0
1 5 -97 0
-1 5 97 0
1 -5 97 0
-98 41 0
-98 -14 0
-41 14 98 0
-99 -97 0
-99 98 0
97 -98 99 0
-96 99 -100 0
96 -99 -100 0
-96 -99 100 0
96 99 100 0
85 100 -101 0
-85 -100 -101 0
85 -100 101 0
-85 100 101 0
-102 -78 0
-102 -101 0
78 101 102 0
40 -102 -103 0
-40 102 -103 0
40 102 103 0
-40 -102 103 0
-104 -10 0
-104 -8 0
10 8 104 0
24 28 -105 0
-24 -28 -105 0
24 -28 105 0
-24 28 105 0
-106 -104 0
-106 -105 0
104 105 106 0
107 31 0
107 28 0
-31 -28 -107 0
21 -107 -108 0
-21 107 -108 0
21 107 108 0
-21 -107 108 0
94 5 -109 0
-94 -5 -109 0
94 -5 109 0
-94 5 109 0
110 -108 0
110 -109 0
108 109 -110 0
-111 11 0
-111 52 0
-11 -52 111 0
-110 111 -112 0
110 -111 -112 0
-110 -111 112 0
110 111 112 0
113 9 0
113 -74 0
-9 74 -113 0
-114 35 0
-114 113 0
-35 -113 114 0
-114 -20 -115 0
114 20 -115 0
-114 20 115 0
114 -20 115 0
-116 -112 0
-116 115 0
112 -115 116 0
-117 -58 0
-117 61 0
58 -61 117 0
-116 117 -118 0
116 -117 -118 0
-116 -117 118 0
116 117 118 0
-34 -6 -119 0
34 6 -119 0
-34 6 119 0
34 -6 119 0
-119 -56 -120 0
119 56 -120 0
-119 56 120 0
119 -56 120 0
-121 83 0
-121 1 0
-83 -1 121 0
-122 120 0
-122 -121 0
-120 121 122 0
123 -118 0
123 -122 0
118 122 -123 0
106 123 -124 0
-106 -123 -124 0
106 -123 124 0
-106 123 124 0
103 124 -125 0
-103 -124 -125 0
103 -124 125 0
-103 124 125 0
126 17 0
126 -125 0
-17 125 -126 0
109 114 44 -13 67 107 -89 -21 0
88 -115 20 -59 0
9 -79 31 61 -84 -34 121 -69 86 0
-110 -53 54 72 0
-20 -3 44 -4 34 40 18 0
33 -74 -80 117 -15 75 22 -72 -106 -57 0
78 -19 -42 0
-113 97 37 0
64 4 -60 -83 0
118 6 49 28 -110 -53 -65 66 -89 0
91 94 124 68 -102 81 -50 36 95 0
51 -35 57 -12 -65 21 -82 16 -40 0
-81 45 27 -93 43 -95 46 24 0
97 34 75 -8 101 72 17 3 109 0
-113 -95 -87 56 68 0
-47 117 10 11 -70 -9 -61 0
36 -80 51 -65 23 -82 0
-29 3 59 1 0
-102 54 104 56 0
-123 -74 -83 12 24 -14 -119 -66 0
120 1 21 115 6 -98 -43 -60 89 77 0
-124 33 -56 73 0
22 97 -47 -24 10 87 72 -116 -77 0
34 -66 16 62 52 0
22 -82 109 0
53 -86 -78 44 108 -126 0
64 -46 -105 -69 -75 -39 0
-38 -23 -116 55 104 -56 -88 -4 76 0
-49 -37 98 -124 81 101 -21 0
42 -10 -57 124 -67 5 11 54 -83 0
-89 -71 3 -5 0
66 33 -73 -53 36 45 -113 0
-63 62 -7 -107 -43 -122 23 0
-114 -12 -112 -115 96 -104 0
-40 14 87 17 -22 29 -101 79 -100 -45 0
-32 -102 -30 0
-14 -38 -126 -23 -115 -124 34 0
-60 -13 104 5 -119 -20 -10 -99 0
-73 17 -109 -28 96 0
67 95 38 -79 119 0
71 90 -74 -60 57 104 -2 -98 -12 108 0
70 7 -32 0
126 0
